c preprocessed version of dimacs_mulsol.i.3, 77 vertices, 1148 edges
p td 77 1148
0 1
0 2
0 32
0 34
0 36
0 38
0 40
0 42
0 41
0 39
0 37
0 35
0 33
0 31
0 69
0 70
0 71
0 44
0 45
43 0
1 2
1 32
1 34
1 36
1 38
1 40
1 42
1 41
1 39
1 37
1 35
1 33
1 31
1 44
1 45
43 1
3 2
24 2
2 31
2 33
2 35
2 37
2 39
2 41
2 42
2 40
2 38
2 36
2 34
2 32
43 2
46 2
3 4
3 6
3 21
3 24
3 25
3 26
3 27
3 28
3 29
3 30
3 32
3 34
3 36
3 38
3 40
3 42
3 41
3 39
3 37
3 35
3 33
3 31
3 23
3 68
3 22
3 48
3 50
3 54
3 64
3 66
3 67
3 65
3 62
3 60
3 55
3 63
3 58
3 61
3 59
3 56
3 57
3 53
3 51
3 52
3 47
3 49
5 4
7 4
8 4
9 4
10 4
11 4
12 4
13 4
14 4
15 4
16 4
17 4
18 4
19 4
20 4
21 4
47 4
49 4
23 4
51 4
55 4
62 4
65 4
64 4
54 4
50 4
48 4
22 4
4 6
46 4
5 6
5 7
5 8
5 9
5 10
5 11
5 12
5 13
5 14
5 15
5 16
5 17
5 18
5 19
5 20
5 21
5 47
5 49
5 68
5 23
5 52
5 51
5 53
5 57
5 56
5 59
5 61
5 58
5 63
5 55
5 60
5 62
5 65
5 67
5 66
5 64
5 54
5 50
5 48
5 22
46 5
7 6
8 6
9 6
10 6
11 6
12 6
13 6
14 6
15 6
16 6
17 6
18 6
19 6
20 6
23 6
51 6
55 6
62 6
65 6
64 6
54 6
50 6
48 6
22 6
46 6
7 8
7 9
7 10
7 11
7 12
7 13
7 14
7 15
7 16
7 17
7 18
7 19
7 20
7 21
7 47
7 49
7 68
7 23
7 52
7 51
7 53
7 57
7 56
7 59
7 61
7 58
7 63
7 55
7 60
7 62
7 65
7 67
7 66
7 64
7 54
7 50
7 48
7 22
46 7
8 9
8 10
8 11
8 12
8 13
8 14
8 15
8 16
8 17
8 18
8 19
8 20
8 21
8 47
8 49
8 68
8 23
8 52
8 51
8 53
8 57
8 56
8 59
8 61
8 58
8 63
8 55
8 60
8 62
8 65
8 67
8 66
8 64
8 54
8 50
8 48
8 22
46 8
9 10
9 11
9 12
9 13
9 14
9 15
9 16
9 17
9 18
9 19
9 20
9 21
9 47
9 49
9 68
9 23
9 52
9 51
9 53
9 57
9 56
9 59
9 61
9 58
9 63
9 55
9 60
9 62
9 65
9 67
9 66
9 64
9 54
9 50
9 48
9 22
46 9
10 11
10 12
10 13
10 14
10 15
10 16
10 17
10 18
10 19
10 20
10 21
10 47
10 49
10 68
10 23
10 52
10 51
10 53
10 57
10 56
10 59
10 61
10 58
10 63
10 55
10 60
10 62
10 65
10 67
10 66
10 64
10 54
10 50
10 48
10 22
10 32
46 10
11 12
11 13
11 14
11 15
11 16
11 17
11 18
11 19
11 20
11 21
11 47
11 49
11 68
11 23
11 52
11 51
11 53
11 57
11 56
11 59
11 61
11 58
11 63
11 55
11 60
11 62
11 65
11 67
11 66
11 64
11 54
11 50
11 48
11 22
11 34
11 32
46 11
12 13
12 14
12 15
12 16
12 17
12 18
12 19
12 20
12 21
12 47
12 49
12 68
12 23
12 52
12 51
12 53
12 57
12 56
12 59
12 61
12 58
12 63
12 55
12 60
12 62
12 65
12 67
12 66
12 64
12 54
12 50
12 48
12 22
12 36
12 34
12 32
46 12
13 14
13 15
13 16
13 17
13 18
13 19
13 20
13 21
13 47
13 49
13 68
13 23
13 52
13 51
13 53
13 57
13 56
13 59
13 61
13 58
13 63
13 55
13 60
13 62
13 65
13 67
13 66
13 64
13 54
13 50
13 48
13 22
13 38
13 36
13 34
13 32
46 13
14 15
14 16
14 17
14 18
14 19
14 20
14 21
14 47
14 49
14 68
14 23
14 52
14 51
14 53
14 57
14 56
14 59
14 61
14 58
14 63
14 55
14 60
14 62
14 65
14 67
14 66
14 64
14 54
14 50
14 48
14 22
14 40
14 38
14 36
14 34
14 32
46 14
15 16
15 17
15 18
15 19
15 20
15 21
15 47
15 49
15 68
15 23
15 52
15 51
15 53
15 57
15 56
15 59
15 61
15 58
15 63
15 55
15 60
15 62
15 65
15 67
15 66
15 64
15 54
15 50
15 48
15 22
46 15
16 17
16 18
16 19
16 20
16 21
16 47
16 49
16 68
16 23
16 52
16 51
16 53
16 57
16 56
16 59
16 61
16 58
16 63
16 55
16 60
16 62
16 65
16 67
16 66
16 64
16 54
16 50
16 48
16 22
46 16
17 18
17 19
17 20
17 21
17 47
17 49
17 68
17 23
17 52
17 51
17 53
17 57
17 56
17 59
17 61
17 58
17 63
17 55
17 60
17 62
17 65
17 67
17 66
17 64
17 54
17 50
17 48
17 22
46 17
18 19
18 20
18 21
18 47
18 49
18 68
18 23
18 52
18 51
18 53
18 57
18 56
18 59
18 61
18 58
18 63
18 55
18 60
18 62
18 65
18 67
18 66
18 64
18 54
18 50
18 48
18 22
46 18
19 20
19 21
19 47
19 49
19 68
19 23
19 52
19 51
19 53
19 57
19 56
19 59
19 61
19 58
19 63
19 55
19 60
19 62
19 65
19 67
19 66
19 64
19 54
19 50
19 48
19 22
46 19
20 21
20 47
20 49
20 68
20 23
20 52
20 51
20 53
20 57
20 56
20 59
20 61
20 58
20 63
20 55
20 60
20 62
20 65
20 67
20 66
20 64
20 54
20 50
20 48
20 22
46 20
21 22
21 48
21 50
21 54
21 64
21 65
21 62
21 55
21 51
21 23
46 21
23 22
47 22
49 22
51 22
55 22
62 22
65 22
66 22
64 22
54 22
50 22
48 22
46 22
24 23
47 23
49 23
23 48
23 50
23 54
23 64
23 66
23 67
23 65
23 62
23 60
23 55
23 63
23 58
23 61
23 59
23 56
23 57
23 53
23 51
23 52
46 23
24 25
24 26
24 27
24 28
24 29
24 30
24 32
24 34
24 36
24 38
24 40
24 42
24 41
24 39
24 37
24 35
24 33
24 31
25 26
25 27
25 28
25 29
25 30
25 32
25 34
25 36
25 38
25 40
25 42
25 41
25 39
25 37
25 35
25 33
25 31
26 27
26 28
26 29
26 30
26 34
26 36
26 38
26 40
26 42
26 41
26 39
26 37
26 35
26 33
26 31
27 28
27 29
27 30
27 41
27 39
27 37
27 35
27 33
27 31
28 29
28 30
28 31
29 30
32 31
34 31
36 31
38 31
40 31
42 31
41 31
39 31
37 31
35 31
33 31
43 31
46 31
32 33
32 35
32 37
32 39
32 41
32 42
32 40
32 38
32 36
32 34
43 32
46 32
34 33
36 33
38 33
40 33
42 33
41 33
39 33
37 33
35 33
43 33
46 33
34 35
34 37
34 39
34 41
34 42
34 40
34 38
34 36
43 34
46 34
36 35
38 35
40 35
42 35
41 35
39 35
37 35
43 35
46 35
36 37
36 39
36 41
36 42
36 40
36 38
43 36
46 36
38 37
40 37
42 37
41 37
39 37
43 37
46 37
38 39
38 41
38 42
38 40
43 38
46 38
40 39
42 39
41 39
43 39
46 39
40 41
40 42
43 40
46 40
42 41
43 41
46 41
43 42
46 42
43 44
43 45
46 43
44 45
46 47
46 48
46 49
46 50
46 51
46 52
46 53
46 54
46 55
46 56
46 57
46 58
46 59
46 60
46 61
46 62
46 63
46 64
46 65
46 66
46 67
46 68
47 48
47 50
47 54
47 64
47 65
47 62
47 55
47 51
49 48
51 48
55 48
62 48
65 48
66 48
64 48
54 48
50 48
49 50
49 54
49 64
49 65
49 62
49 55
49 51
51 50
55 50
62 50
65 50
67 50
66 50
64 50
54 50
52 51
51 54
51 64
51 66
51 67
51 65
51 62
51 60
51 55
51 63
51 58
51 61
51 59
51 56
51 57
51 53
52 53
55 54
62 54
64 54
65 54
67 54
66 54
56 55
59 55
61 55
58 55
63 55
55 64
55 66
55 67
55 65
55 62
55 60
57 56
56 63
56 58
56 61
56 59
57 58
57 61
57 59
59 58
61 58
58 67
58 65
58 62
58 60
58 63
59 60
59 63
59 61
61 60
63 60
60 65
60 62
61 62
61 63
63 62
62 64
62 66
62 67
62 65
63 64
63 66
63 67
63 65
65 64
67 64
66 64
65 66
65 67
67 66
69 70
72 76
72 75
72 73
72 74
72 0
72 1
72 43
72 2
72 31
72 32
72 33
72 34
72 35
72 36
72 37
72 38
72 39
72 40
72 41
72 42
72 44
72 45
72 69
72 70
72 71
72 46
73 76
73 75
73 74
73 0
73 1
73 2
73 32
73 34
73 36
73 38
73 40
73 42
73 41
73 39
73 37
73 35
73 33
73 31
73 69
73 70
73 71
73 44
73 45
73 43
74 76
74 0
74 1
74 2
74 32
74 34
74 36
74 38
74 40
74 42
74 41
74 39
74 37
74 35
74 33
74 31
74 69
74 70
74 71
74 44
74 45
74 43
74 75
75 76
75 0
75 1
75 2
75 31
75 32
75 33
75 34
75 35
75 36
75 37
75 38
75 39
75 40
75 41
75 42
75 44
75 45
75 69
75 70
75 71
75 43
76 0
76 1
76 2
76 3
76 4
76 6
76 21
76 22
76 23
76 24
76 25
76 26
76 27
76 28
76 29
76 30
76 31
76 32
76 33
76 34
76 35
76 36
76 37
76 38
76 39
76 40
76 41
76 42
76 43
76 44
76 45
76 46
76 47
76 48
76 49
76 50
76 51
76 52
76 53
76 54
76 55
76 56
76 57
76 58
76 59
76 60
76 61
76 62
76 63
76 64
76 65
76 66
76 67
76 68
76 69
76 70
76 71
